(set-info :smt-lib-version 2.6)
(set-logic QF_LIA)
(set-info :category "industrial")
(set-info :status sat)
(declare-fun x0 () Int)
(declare-fun x1 () Int)
(declare-fun x10 () Int)
(declare-fun x11 () Int)
(declare-fun x12 () Int)
(declare-fun x13 () Int)
(declare-fun x14 () Int)
(declare-fun x15 () Int)
(declare-fun x16 () Int)
(declare-fun x17 () Int)
(declare-fun x18 () Int)
(declare-fun x19 () Int)
(declare-fun x2 () Int)
(declare-fun x20 () Int)
(declare-fun x21 () Int)
(declare-fun x22 () Int)
(declare-fun x23 () Int)
(declare-fun x24 () Int)
(declare-fun x25 () Int)
(declare-fun x26 () Int)
(declare-fun x27 () Int)
(declare-fun x28 () Int)
(declare-fun x29 () Int)
(declare-fun x3 () Int)
(declare-fun x30 () Int)
(declare-fun x31 () Int)
(declare-fun x32 () Int)
(declare-fun x33 () Int)
(declare-fun x34 () Int)
(declare-fun x4 () Int)
(declare-fun x5 () Int)
(declare-fun x6 () Int)
(declare-fun x7 () Int)
(declare-fun x8 () Int)
(declare-fun x9 () Int)
(assert (let ((?v_57 (* 0 x12)) (?v_41 (* 0 x15)) (?v_1 (* 0 x16)) (?v_38 (* 0 x27)) (?v_2 (* 0 x29)) (?v_29 (* 0 x30)) (?v_3 (* 0 x32)) (?v_7 (* 1 x2)) (?v_10 (* 0 x34)) (?v_31 (* 0 x4)) (?v_32 (* 1 x5)) (?v_53 (* 0 x9)) (?v_54 (* 1 x8)) (?v_90 (* 1 x10)) (?v_25 (* 1 x15)) (?v_26 (* 0 x17)) (?v_6 (* 0 x18)) (?v_50 (* 1 x20)) (?v_52 (* 1 x23)) (?v_67 (* 1 x26)) (?v_8 (* 1 x27)) (?v_9 (* 1 x3)) (?v_79 (* 1 x30)) (?v_86 (* 1 x33)) (?v_11 (* 0 x6)) (?v_12 (* 0 x8)) (?v_23 (* 0 x10)) (?v_34 (* 1 x0)) (?v_22 (* 0 x1)) (?v_24 (* 0 x14)) (?v_15 (* 0 x20)) (?v_58 (* 1 x17)) (?v_51 (* 0 x22)) (?v_18 (* 0 x24)) (?v_28 (* 0 x25)) (?v_19 (* 0 x26)) (?v_40 (* 1 x32)) (?v_39 (* 1 x16)) (?v_21 (* 0 x7)) (?v_66 (* 0 x19)) (?v_45 (* 1 x22)) (?v_46 (* 0 x23)) (?v_30 (* 0 x33)) (?v_59 (* 1 x4))) (let ((?v_75 (+ ?v_11 ?v_21)) (?v_33 (* 0 x11)) (?v_35 (* 1 x12)) (?v_43 (* 0 x2)) (?v_62 (* 1 x7)) (?v_63 (* 1 x18)) (?v_65 (* 0 x28)) (?v_71 (* 1 x29)) (?v_60 (* 0 x31)) (?v_61 (* 1 x34)) (?v_68 (* 0 x13)) (?v_96 (* 1 x31)) (?v_87 (* 1 x28)) (?v_72 (* 0 x0)) (?v_64 (* 0 x5)) (?v_95 (* 1 x19)) (?v_69 (* 0 x21)) (?v_85 (* 1 x24)) (?v_78 (* 2 x23)) (?v_82 (* 0 x3)) (?v_70 (* 1 x14)) (?v_80 (* 1 x9)) (?v_93 (* 1 x25)) (?v_94 (+ ?v_11 (+ ?v_21 (* 2 x9)))) (?v_77 (* 1 x21)) (?v_101 (* 2 x11)) (?v_107 (* 1 x11)) (?v_103 (* 2 x25)) (?v_102 (* 1 x1)) (?v_106 (* 1 x13)) (?v_13 (* (- 1) x1)) (?v_48 (* (- 1) x19)) (?v_0 (* (- 1) x24)) (?v_36 (* (- 1) x26)) (?v_5 (* (- 1) x33)) (?v_49 (* (- 1) x6)) (?v_4 (* (- 1) x13)) (?v_56 (* (- 1) x31)) (?v_37 (* (- 1) x4)) (?v_92 (* (- 1) x5)) (?v_16 (* (- 1) x21)) (?v_14 (* (- 1) x12)) (?v_27 (* (- 1) x23)) (?v_20 (* (- 1) x28)) (?v_17 (* (- 1) x29)) (?v_97 (* (- 1) x34)) (?v_42 (* (- 1) x16)) (?v_81 (* (- 1) x32)) (?v_47 (* (- 1) x17)) (?v_73 (* (- 1) x18)) (?v_44 (* (- 1) x3)) (?v_55 (* (- 1) x30)) (?v_88 (* (- 1) x8)) (?v_74 (* (- 1) x27)) (?v_89 (* (- 2) x3)) (?v_76 (* (- 1) x15)) (?v_83 (* (- 1) x0)) (?v_104 (* (- 1) x22)) (?v_84 (* (- 1) x10)) (?v_98 (* (- 1) x20)) (?v_105 (* (- 2) x28)) (?v_99 (* (- 1) x25)) (?v_91 (* (- 1) x14)) (?v_100 (* (- 1) x7))) (and (<= (+ ?v_13 (+ ?v_57 (+ (* (- 2) x13) (+ ?v_48 (+ ?v_0 (+ ?v_36 (+ ?v_5 (+ ?v_41 (+ ?v_49 (+ ?v_1 (+ ?v_38 (+ ?v_2 (+ ?v_29 (+ ?v_3 (+ ?v_7 (+ (* 2 x21) (+ ?v_10 (+ ?v_31 (+ ?v_32 (+ ?v_53 ?v_54)))))))))))))))))))) (- 1)) (<= (+ ?v_90 (+ ?v_4 (+ ?v_0 (+ ?v_56 (+ ?v_37 (+ ?v_92 (+ ?v_25 (+ ?v_16 (+ ?v_1 (+ ?v_26 (+ ?v_6 (+ ?v_50 (+ ?v_2 (+ ?v_3 (+ ?v_52 (+ ?v_67 (+ ?v_8 (+ ?v_9 (+ ?v_79 (+ ?v_86 (+ ?v_11 ?v_12))))))))))))))))))))) 0) (<= (+ ?v_23 (+ ?v_14 (+ ?v_34 (+ ?v_22 (+ ?v_4 (+ ?v_27 (+ ?v_20 (+ ?v_17 (+ ?v_5 (+ ?v_24 (+ ?v_6 (+ ?v_15 (+ ?v_58 (+ ?v_51 (+ ?v_18 (+ ?v_28 (+ ?v_19 (+ ?v_7 (+ ?v_8 (+ ?v_9 (+ ?v_40 (+ ?v_10 (+ ?v_11 (+ ?v_12 (+ ?v_39 ?v_21))))))))))))))))))))))))) 0) (<= (+ ?v_13 (+ ?v_14 (+ ?v_4 (+ ?v_66 (+ ?v_15 (+ ?v_7 (+ ?v_16 (+ ?v_17 (+ ?v_45 (+ ?v_46 (+ ?v_18 (+ ?v_19 (+ (* 2 x27) (+ ?v_20 (+ ?v_3 (+ ?v_30 (+ ?v_97 (+ (* (- 1) x9) (+ ?v_1 (+ ?v_59 ?v_75)))))))))))))))))))) (- 1)) (<= (+ ?v_22 (+ ?v_23 (+ ?v_33 (+ ?v_35 (+ ?v_4 (+ ?v_24 (+ ?v_25 (+ ?v_42 (+ ?v_26 (+ ?v_43 (+ ?v_27 (+ ?v_81 (+ ?v_28 (+ ?v_19 (+ ?v_2 (+ ?v_29 (+ ?v_30 (+ ?v_10 (+ ?v_31 (+ ?v_32 (+ (* 2 x6) ?v_21))))))))))))))))))))) 0) (<= (+ (* (- 2) x22) (+ ?v_23 (+ ?v_33 (+ (* (- 2) x9) (+ ?v_34 (+ ?v_35 (+ ?v_4 (+ ?v_47 (+ ?v_73 (+ ?v_16 (+ ?v_36 (+ ?v_44 (+ ?v_55 (+ ?v_37 (+ ?v_24 (+ ?v_18 (+ ?v_28 (+ ?v_38 (+ ?v_2 (+ ?v_39 (+ ?v_40 ?v_62))))))))))))))))))))) 1) (<= (+ ?v_23 (+ ?v_41 (+ ?v_34 (+ ?v_35 (+ ?v_42 (+ ?v_26 (+ ?v_63 (+ ?v_43 (+ ?v_16 (+ ?v_0 (+ ?v_44 (+ ?v_45 (+ ?v_46 (+ ?v_28 (+ ?v_19 (+ ?v_38 (+ ?v_65 (+ ?v_71 (+ ?v_29 (+ ?v_60 (+ ?v_30 (+ ?v_40 (+ ?v_61 (+ ?v_88 ?v_11)))))))))))))))))))))))) 0) (<= (+ (* (- 2) x29) (+ ?v_47 (+ ?v_48 (+ ?v_0 (+ ?v_74 (+ ?v_33 (+ ?v_35 (+ ?v_49 (+ ?v_68 (+ ?v_41 (+ ?v_6 (+ ?v_50 (+ ?v_51 (+ ?v_30 (+ ?v_31 (+ ?v_52 (+ ?v_96 (+ ?v_40 (+ ?v_53 (+ (* 2 x28) ?v_54)))))))))))))))))))) 1) (<= (+ ?v_0 (+ ?v_36 (+ ?v_89 (+ ?v_55 (+ ?v_56 (+ ?v_22 (+ ?v_23 (+ ?v_33 (+ ?v_57 (+ ?v_24 (+ ?v_41 (+ ?v_1 (+ ?v_58 (+ ?v_43 (+ ?v_15 (+ ?v_51 (+ ?v_2 (+ ?v_87 (+ ?v_40 (+ ?v_59 (+ ?v_11 (+ ?v_21 ?v_53)))))))))))))))))))))) 0) (<= (+ (* (- 2) x17) (+ ?v_76 (+ ?v_48 (+ ?v_20 (+ ?v_55 (+ ?v_37 (+ ?v_72 (+ ?v_22 (+ ?v_23 (+ ?v_33 (+ ?v_24 (+ ?v_43 (+ ?v_50 (+ ?v_51 (+ ?v_18 (+ ?v_19 (+ ?v_60 (+ ?v_30 (+ ?v_64 (+ ?v_52 (+ ?v_61 (+ ?v_11 (+ ?v_12 ?v_62))))))))))))))))))))))) 0) (<= (+ (* (- 2) x27) (+ ?v_36 (+ ?v_5 (+ ?v_22 (+ ?v_24 (+ ?v_1 (+ ?v_26 (+ ?v_63 (+ ?v_95 (+ ?v_43 (+ ?v_50 (+ ?v_69 (+ ?v_51 (+ ?v_2 (+ ?v_85 (+ ?v_29 (+ ?v_3 (+ ?v_64 (+ ?v_78 (+ ?v_65 (+ ?v_61 (+ (* 2 x4) ?v_62)))))))))))))))))))))) 1) (<= (+ ?v_83 (+ ?v_23 (+ ?v_33 (+ ?v_57 (+ (* (- 3) x8) (+ ?v_22 (+ ?v_4 (+ ?v_6 (+ ?v_66 (+ ?v_104 (+ ?v_28 (+ ?v_38 (+ ?v_20 (+ ?v_17 (+ ?v_82 (+ ?v_31 (+ ?v_64 (+ ?v_70 (+ ?v_1 (+ ?v_58 (+ ?v_67 ?v_80))))))))))))))))))))) 1) (<= (+ ?v_84 (+ ?v_47 (+ ?v_66 (+ ?v_98 (+ ?v_0 (+ ?v_6 (+ ?v_56 (+ ?v_68 (+ ?v_69 (+ ?v_46 (+ ?v_19 (+ ?v_65 (+ ?v_31 (+ ?v_64 (+ ?v_70 (+ ?v_25 (+ ?v_93 (+ ?v_71 (+ (* 2 x3) (+ ?v_10 ?v_94)))))))))))))))))))) 0) (<= (+ ?v_105 (+ ?v_72 (+ ?v_13 (+ ?v_73 (+ ?v_48 (+ ?v_99 (+ ?v_74 (+ ?v_17 (+ ?v_44 (+ ?v_23 (+ ?v_57 (+ ?v_42 (+ ?v_68 (+ ?v_24 (+ ?v_41 (+ ?v_7 (+ ?v_46 (+ ?v_18 (+ ?v_67 (+ ?v_60 (+ ?v_3 (+ ?v_31 (+ ?v_77 ?v_75))))))))))))))))))))))) (- 1)) (<= (+ ?v_56 (+ ?v_23 (+ ?v_57 (+ ?v_76 (+ ?v_34 (+ ?v_22 (+ ?v_101 (+ ?v_68 (+ ?v_24 (+ ?v_1 (+ ?v_28 (+ ?v_7 (+ ?v_77 (+ ?v_78 (+ ?v_65 (+ ?v_31 (+ ?v_64 (+ ?v_79 (+ ?v_61 (+ ?v_11 (+ ?v_21 (+ ?v_12 ?v_80)))))))))))))))))))))) 1) (<= (+ ?v_23 (+ ?v_107 (+ ?v_91 (+ ?v_76 (+ ?v_47 (+ (* (- 1) x2) (+ ?v_81 (+ ?v_68 (+ ?v_15 (+ ?v_63 (+ ?v_51 (+ ?v_19 (+ ?v_71 (+ ?v_82 (+ ?v_60 (+ ?v_10 (+ ?v_31 (+ ?v_12 (+ ?v_53 (+ ?v_39 (+ ?v_77 (+ ?v_52 (+ ?v_32 (* 1 x6)))))))))))))))))))))))) 0) (<= (+ ?v_83 (+ ?v_84 (+ ?v_58 (+ ?v_16 (+ ?v_17 (+ ?v_19 (+ ?v_85 (+ ?v_82 (+ ?v_55 (+ ?v_56 (+ ?v_37 (+ ?v_24 (+ ?v_43 (+ ?v_86 (+ ?v_64 (+ ?v_103 (+ ?v_87 (+ ?v_88 (+ ?v_68 (+ (* 2 x16) ?v_62)))))))))))))))))))) (- 1)) (<= (+ (* (- 2) x23) (+ ?v_89 (+ ?v_72 (+ ?v_13 (+ ?v_33 (+ ?v_90 (+ ?v_35 (+ ?v_91 (+ ?v_0 (+ ?v_17 (+ ?v_92 (+ ?v_49 (+ ?v_68 (+ ?v_41 (+ ?v_6 (+ ?v_19 (+ ?v_30 (+ ?v_58 (+ ?v_51 (+ ?v_93 (+ ?v_8 (+ ?v_60 (+ ?v_40 (+ ?v_61 ?v_100)))))))))))))))))))))))) (- 1)) (<= (+ ?v_90 (+ ?v_91 (+ ?v_76 (+ ?v_48 (+ ?v_50 (+ ?v_0 (+ ?v_44 (+ ?v_81 (+ ?v_5 (+ ?v_63 (+ ?v_37 (+ ?v_43 (+ ?v_69 (+ ?v_38 (+ ?v_2 (+ ?v_67 (+ ?v_29 (+ ?v_60 (+ ?v_64 (+ ?v_61 ?v_94)))))))))))))))))))) 0) (<= (+ ?v_84 (+ ?v_91 (+ ?v_36 (+ ?v_81 (+ ?v_92 (+ ?v_72 (+ ?v_6 (+ ?v_15 (+ ?v_35 (+ ?v_58 (+ ?v_95 (+ ?v_7 (+ ?v_69 (+ ?v_51 (+ ?v_18 (+ ?v_28 (+ ?v_82 (+ ?v_29 (+ ?v_31 (+ ?v_96 (+ ?v_97 (+ ?v_12 (+ ?v_53 ?v_102))))))))))))))))))))))) (- 1)) (<= (+ ?v_84 (+ ?v_34 (+ (* 2 x1) (+ ?v_4 (+ ?v_73 (+ ?v_98 (+ ?v_99 (+ ?v_24 (+ ?v_41 (+ ?v_26 (+ ?v_95 (+ ?v_43 (+ ?v_18 (+ ?v_45 (+ ?v_52 (+ ?v_67 (+ ?v_71 (+ ?v_79 (+ ?v_97 (+ ?v_92 (+ ?v_49 (+ ?v_1 (+ ?v_69 (+ ?v_87 ?v_54)))))))))))))))))))))))) (- 1)) (<= (+ ?v_13 (+ ?v_14 (+ ?v_70 (+ ?v_42 (+ ?v_15 (+ ?v_36 (+ ?v_58 (+ ?v_51 (+ ?v_46 (+ ?v_77 (+ ?v_65 (+ ?v_29 (+ ?v_3 (+ ?v_96 (+ ?v_10 (+ ?v_59 (+ ?v_11 (+ ?v_12 (+ (* 2 x13) ?v_100))))))))))))))))))) 1) (<= (+ ?v_57 (+ ?v_27 (+ ?v_74 (+ ?v_5 (+ ?v_92 (+ ?v_24 (+ ?v_41 (+ ?v_6 (+ ?v_15 (+ ?v_51 (+ ?v_19 (+ ?v_34 (+ ?v_101 (+ (* 3 x10) (+ ?v_42 (+ ?v_96 (+ ?v_10 (+ ?v_11 (+ ?v_102 (+ ?v_68 ?v_59)))))))))))))))))))) 0) (<= (+ (* (- 2) x33) (+ ?v_72 (+ ?v_33 (+ ?v_42 (+ ?v_47 (+ ?v_17 (+ ?v_6 (+ ?v_50 (+ ?v_8 (+ ?v_92 (+ ?v_29 (+ ?v_31 (+ ?v_53 (+ ?v_102 (+ ?v_7 (+ ?v_77 (+ ?v_103 (+ ?v_87 (+ ?v_9 (+ ?v_96 (+ ?v_21 ?v_54))))))))))))))))))))) 0) (<= (+ ?v_83 (+ ?v_48 (+ ?v_55 (+ ?v_22 (+ ?v_90 (+ ?v_24 (+ ?v_15 (+ ?v_18 (+ ?v_28 (+ ?v_38 (+ ?v_60 (+ ?v_3 (+ ?v_30 (+ ?v_64 (+ ?v_25 (+ ?v_7 (+ ?v_52 (+ ?v_67 (+ ?v_65 (+ ?v_71 (+ ?v_11 (+ ?v_12 (+ ?v_53 (+ ?v_106 (+ ?v_61 ?v_21))))))))))))))))))))))))) 0) (<= (+ ?v_73 (+ ?v_33 (+ ?v_95 (+ (* (- 2) x2) (+ ?v_104 (+ ?v_57 (+ ?v_50 (+ ?v_18 (+ ?v_93 (+ ?v_105 (+ ?v_2 (+ ?v_55 (+ ?v_56 (+ ?v_1 (+ ?v_3 (+ ?v_30 (+ ?v_31 (+ ?v_12 (+ ?v_102 (+ ?v_106 (* 2 x7))))))))))))))))))))) (- 1)) (<= (+ ?v_91 (+ ?v_0 (+ ?v_36 (+ ?v_56 (+ ?v_81 (+ ?v_37 (+ ?v_22 (+ ?v_23 (+ ?v_66 (+ ?v_38 (+ ?v_2 (+ ?v_82 (+ ?v_64 (+ ?v_107 (+ ?v_57 (+ ?v_106 (+ (* 2 x17) (+ ?v_7 (+ ?v_77 (+ ?v_45 (+ ?v_87 (+ ?v_61 ?v_62)))))))))))))))))))))) (- 1)) (<= (+ (* (- 2) x24) (+ ?v_13 (+ ?v_48 (+ ?v_98 (+ ?v_36 (+ ?v_17 (+ ?v_23 (+ ?v_107 (+ ?v_57 (+ ?v_27 (+ ?v_24 (+ ?v_41 (+ ?v_6 (+ ?v_43 (+ ?v_69 (+ ?v_51 (+ ?v_65 (+ ?v_3 (+ ?v_9 (+ ?v_10 (+ ?v_49 (+ ?v_1 (+ ?v_53 (+ ?v_106 ?v_62)))))))))))))))))))))))) 1) (<= (+ ?v_98 (+ ?v_104 (+ ?v_20 (+ ?v_44 (+ ?v_56 (+ ?v_5 (+ ?v_37 (+ ?v_72 (+ ?v_23 (+ ?v_57 (+ ?v_24 (+ ?v_6 (+ ?v_29 (+ ?v_88 (+ ?v_106 (+ ?v_39 (+ ?v_95 (+ ?v_77 (+ ?v_85 (+ ?v_93 (+ ?v_71 ?v_80))))))))))))))))))))) 0)))))
(check-sat)
(exit)
